n=40;
t=50;
profit=[2 4 10 8 8 1 2 1 7 3 10 4 8 5 6 2 2 9 4 1 5 2 10 7 2 9 4 3 1 7 10 9 9 3 2 7 3 4 9 2];
length=[5 5 5 3 5 5 3 2 2 2 5 2 5 3 3 4 3 4 3 1 4 4 2 3 2 4 3 4 4 3 4 4 4 3 2 5 3 5 4 1];
min_deliver=[10 29 46 9 21 37 29 2 10 24 28 4 24 48 14 27 20 5 42 12 31 14 34 22 12 24 18 37 5 41 25 23 5 26 3 16 7 13 9 5];
max_deliver=[15 34 46 11 30 39 36 2 17 30 35 6 30 50 21 34 26 10 48 19 39 22 38 31 15 32 21 46 13 47 28 27 7 31 3 19 13 16 13 10];
surface=[4 3 1 5 4 2 4 5 5 5 1 1 4 5 4 1 4 3 1 3 1 4 5 5 1 4 5 3 2 1 3 3 3 1 1 2 4 3 5 2];
surface_capacity=16;
